NAME          DCAP_2_4_3_300_SS217
ROWS
 N  OBJ
 L  CON1
 L  CON2
 L  CON3
 L  CON4
 L  CON5
 L  CON6
 L  CON7
 L  CON8
 L  CON9
 L  CON10
 L  CON11
 L  CON12
 E  CON13
 E  CON14
 E  CON15
 E  CON16
 E  CON17
 E  CON18
 E  CON19
 E  CON20
 E  CON21
 E  CON22
 E  CON23
 E  CON24
COLUMNS
    x[1,1]    OBJ       6.180167      CON1      1.000000    
    x[1,1]    CON7      -1.000000     CON8      -1.000000   
    x[1,1]    CON9      -1.000000   
    x[1,2]    OBJ       6.563535      CON2      1.000000    
    x[1,2]    CON8      -1.000000     CON9      -1.000000   
    x[1,3]    OBJ       7.443064      CON3      1.000000    
    x[1,3]    CON9      -1.000000   
    x[2,1]    OBJ       6.732585      CON4      1.000000    
    x[2,1]    CON10     -1.000000     CON11     -1.000000   
    x[2,1]    CON12     -1.000000   
    x[2,2]    OBJ       5.039546      CON5      1.000000    
    x[2,2]    CON11     -1.000000     CON12     -1.000000   
    x[2,3]    OBJ       6.054841      CON6      1.000000    
    x[2,3]    CON12     -1.000000   
    MARKER    'MARKER'                'INTORG'
    u[1,1]    OBJ       48.076654     CON1      -1.000000   
    u[1,2]    OBJ       20.066487     CON2      -1.000000   
    u[1,3]    OBJ       32.230043     CON3      -1.000000   
    u[2,1]    OBJ       49.996186     CON4      -1.000000   
    u[2,2]    OBJ       49.466655     CON5      -1.000000   
    u[2,3]    OBJ       27.484319     CON6      -1.000000   
    y[1,1,1]  OBJ       8.677064      CON7      0.577520    
    y[1,1,1]  CON13     1.000000    
    y[1,1,2]  OBJ       6.791427      CON8      0.910164    
    y[1,1,2]  CON14     1.000000    
    y[1,1,3]  OBJ       9.354714      CON9      0.516018    
    y[1,1,3]  CON15     1.000000    
    y[1,2,1]  OBJ       9.085079      CON7      0.654634    
    y[1,2,1]  CON16     1.000000    
    y[1,2,2]  OBJ       5.385504      CON8      0.580963    
    y[1,2,2]  CON17     1.000000    
    y[1,2,3]  OBJ       9.332854      CON9      1.319758    
    y[1,2,3]  CON18     1.000000    
    y[1,3,1]  OBJ       8.329787      CON7      1.160220    
    y[1,3,1]  CON19     1.000000    
    y[1,3,2]  OBJ       5.429198      CON8      1.469280    
    y[1,3,2]  CON20     1.000000    
    y[1,3,3]  OBJ       6.504109      CON9      1.008765    
    y[1,3,3]  CON21     1.000000    
    y[1,4,1]  OBJ       6.632801      CON7      1.222089    
    y[1,4,1]  CON22     1.000000    
    y[1,4,2]  OBJ       9.543702      CON8      1.103573    
    y[1,4,2]  CON23     1.000000    
    y[1,4,3]  OBJ       7.782225      CON9      0.859380    
    y[1,4,3]  CON24     1.000000    
    y[2,1,1]  OBJ       6.099867      CON10     0.577520    
    y[2,1,1]  CON13     1.000000    
    y[2,1,2]  OBJ       8.619376      CON11     0.910164    
    y[2,1,2]  CON14     1.000000    
    y[2,1,3]  OBJ       7.513763      CON12     0.516018    
    y[2,1,3]  CON15     1.000000    
    y[2,2,1]  OBJ       5.580145      CON10     0.654634    
    y[2,2,1]  CON16     1.000000    
    y[2,2,2]  OBJ       6.190276      CON11     0.580963    
    y[2,2,2]  CON17     1.000000    
    y[2,2,3]  OBJ       6.037873      CON12     1.319758    
    y[2,2,3]  CON18     1.000000    
    y[2,3,1]  OBJ       5.126640      CON10     1.160220    
    y[2,3,1]  CON19     1.000000    
    y[2,3,2]  OBJ       6.920171      CON11     1.469280    
    y[2,3,2]  CON20     1.000000    
    y[2,3,3]  OBJ       9.854596      CON12     1.008765    
    y[2,3,3]  CON21     1.000000    
    y[2,4,1]  OBJ       7.040261      CON10     1.222089    
    y[2,4,1]  CON22     1.000000    
    y[2,4,2]  OBJ       6.333398      CON11     1.103573    
    y[2,4,2]  CON23     1.000000    
    y[2,4,3]  OBJ       5.399920      CON12     0.859380    
    y[2,4,3]  CON24     1.000000    
    z[1,1]    OBJ       838.393342    CON13     1.000000    
    z[1,2]    OBJ       637.056143    CON14     1.000000    
    z[1,3]    OBJ       740.137114    CON15     1.000000    
    z[2,1]    OBJ       532.561687    CON16     1.000000    
    z[2,2]    OBJ       963.225598    CON17     1.000000    
    z[2,3]    OBJ       909.825172    CON18     1.000000    
    z[3,1]    OBJ       762.145724    CON19     1.000000    
    z[3,2]    OBJ       989.343941    CON20     1.000000    
    z[3,3]    OBJ       696.278049    CON21     1.000000    
    z[4,1]    OBJ       787.336401    CON22     1.000000    
    z[4,2]    OBJ       890.309740    CON23     1.000000    
    z[4,3]    OBJ       681.088987    CON24     1.000000    
    MARKER    'MARKER'                 'INTEND'
RHS
    RHS       CON1      -0.000000     CON2      -0.000000   
    RHS       CON3      -0.000000     CON4      -0.000000   
    RHS       CON5      -0.000000     CON6      -0.000000   
    RHS       CON7      -0.000000     CON8      -0.000000   
    RHS       CON9      -0.000000     CON10     -0.000000   
    RHS       CON11     -0.000000     CON12     -0.000000   
    RHS       CON13     1.000000      CON14     1.000000    
    RHS       CON15     1.000000      CON16     1.000000    
    RHS       CON17     1.000000      CON18     1.000000    
    RHS       CON19     1.000000      CON20     1.000000    
    RHS       CON21     1.000000      CON22     1.000000    
    RHS       CON23     1.000000      CON24     1.000000    
BOUNDS
 BV BOUND     u[1,1]  
 BV BOUND     u[1,2]  
 BV BOUND     u[1,3]  
 BV BOUND     u[2,1]  
 BV BOUND     u[2,2]  
 BV BOUND     u[2,3]  
 BV BOUND     y[1,1,1]
 BV BOUND     y[1,1,2]
 BV BOUND     y[1,1,3]
 BV BOUND     y[1,2,1]
 BV BOUND     y[1,2,2]
 BV BOUND     y[1,2,3]
 BV BOUND     y[1,3,1]
 BV BOUND     y[1,3,2]
 BV BOUND     y[1,3,3]
 BV BOUND     y[1,4,1]
 BV BOUND     y[1,4,2]
 BV BOUND     y[1,4,3]
 BV BOUND     y[2,1,1]
 BV BOUND     y[2,1,2]
 BV BOUND     y[2,1,3]
 BV BOUND     y[2,2,1]
 BV BOUND     y[2,2,2]
 BV BOUND     y[2,2,3]
 BV BOUND     y[2,3,1]
 BV BOUND     y[2,3,2]
 BV BOUND     y[2,3,3]
 BV BOUND     y[2,4,1]
 BV BOUND     y[2,4,2]
 BV BOUND     y[2,4,3]
 BV BOUND     z[1,1]  
 BV BOUND     z[1,2]  
 BV BOUND     z[1,3]  
 BV BOUND     z[2,1]  
 BV BOUND     z[2,2]  
 BV BOUND     z[2,3]  
 BV BOUND     z[3,1]  
 BV BOUND     z[3,2]  
 BV BOUND     z[3,3]  
 BV BOUND     z[4,1]  
 BV BOUND     z[4,2]  
 BV BOUND     z[4,3]  
ENDATA
